
Gurobi 6.5.2 (linux64) logging started Wed Aug 31 10:35:44 2016

Optimize a model with 201 rows, 3565 columns and 8081 nonzeros
Coefficient statistics:
  Matrix range    [1e+00, 2e+00]
  Objective range [1e+00, 1e+02]
  Bounds range    [1e+00, 1e+00]
  RHS range       [1e+00, 1e+00]
Found heuristic solution: objective 2691
Presolve removed 56 rows and 1 columns
Presolve time: 0.01s
Presolved: 145 rows, 3564 columns, 7473 nonzeros
Variable types: 0 continuous, 3564 integer (3564 binary)

Root relaxation: objective 8.585000e+02, 133 iterations, 0.00 seconds

    Nodes    |    Current Node    |     Objective Bounds      |     Work
 Expl Unexpl |  Obj  Depth IntInf | Incumbent    BestBd   Gap | It/Node Time

     0     0  858.50000    0   20 2691.00000  858.50000  68.1%     -    0s
H    0     0                     956.0000000  858.50000  10.2%     -    0s
H    0     0                     877.0000000  858.50000  2.11%     -    0s
     0     0  876.00000    0   14  877.00000  876.00000  0.11%     -    0s
     0     0  876.00000    0   20  877.00000  876.00000  0.11%     -    0s
     0     0     cutoff    0       877.00000  876.00088  0.11%     -    0s

Cutting planes:
  Gomory: 13
  Cover: 16
  Zero half: 3

Explored 0 nodes (334 simplex iterations) in 0.07 seconds
Thread count was 8 (of 8 available processors)

Optimal solution found (tolerance 1.00e-04)
Best objective 8.770000000000e+02, best bound 8.770000000000e+02, gap 0.0%
